ITEM = _(1..55);
knapsack_n = 3;
capacities = [286, 284, 279];
profits = [25, 24, 8, 65, 424, 158, 26, 153, 94, 582, 14, 110, 210, 29, 11, 168, 21, 313, 8, 52, 64, 61, 70, 452, 347, 28, 36, 9, 34, 133, 118, 208, 468, 409, 96, 299, 433, 390, 77, 22, 414, 114, 170, 8, 203, 64, 33, 182, 32, 10, 573, 84, 164, 359, 38];
weights = [10, 7, 10, 34, 53, 16, 12, 29, 26, 62, 7, 16, 67, 9, 4, 20, 10, 51, 5, 25, 13, 27, 27, 65, 77, 3, 8, 6, 8, 15, 28, 47, 44, 36, 22, 44, 59, 49, 28, 7, 72, 21, 20, 6, 66, 30, 10, 82, 4, 5, 37, 27, 19, 79, 12];
